data; 

# include the constants
include MarkovActv.dat;

# initial EV
param initEV :=   0.0;

# the true value of VoT
param trueValueOfTime :=  30.0;		# HKD per hour

# the true parameters of utility function
param trueUm :=
	1	1000
	2	1200
	3	1200
;
param trueB :=
	1	240
	2	720
	3	1260
;
param trueC :=
	1	120
	2	180
	3	120
;